TYPE : Vertex Cover
DIMENSION: 25
EDGE_DATA_SECTION:
0 1
0 7
0 9
0 11
0 12
0 18
0 20
0 24
1 6
1 9
1 13
1 15
1 22
1 23
2 4
2 7
2 8
2 10
2 16
2 21
2 23
3 6
3 8
3 9
3 17
3 22
3 24
4 5
4 6
4 11
4 13
4 14
4 21
4 23
5 6
5 9
5 13
5 14
5 16
5 21
5 24
6 8
6 9
6 11
6 13
6 15
6 16
6 21
7 13
7 17
7 18
7 23
8 9
8 10
8 15
8 17
8 21
8 24
9 10
9 12
9 24
10 19
10 21
11 15
11 16
11 18
11 23
12 15
12 16
12 22
12 24
13 14
13 16
13 17
13 18
13 20
13 24
14 21
14 23
15 23
16 19
16 21
17 21
18 19
18 24
19 20
19 23
20 23
21 23
-1
VERTEX_DEGREE:
8.0 7.0 7.0 6.0 8.0 8.0 11.0 6.0 9.0 9.0 5.0 7.0 6.0 11.0 5.0 6.0 8.0 5.0 6.0 5.0 4.0 10.0 3.0 10.0 8.0
VERTEX_COVER:
0 1 2 3 4 5 6 7 8 9 11 12 13 18 19 21 23
EOF
